c Maximum weighted clique instances generated from exactcolors.
c cutoff: 906876.
c A clique of value > scalef (906876) defines an improving stable sets for coloring.
p edge 41 0
n 1 906875
n 2 906875
n 3 906875
n 4 906875
n 5 906875
n 6 906875
n 7 906875
n 8 906875
n 9 906875
n 10 906875
n 11 906875
n 12 906875
n 13 906875
n 14 906875
n 15 906875
n 16 906875
n 17 906875
n 18 906875
n 19 906875
n 20 906875
n 21 906875
n 22 906875
n 23 906875
n 24 906875
n 25 906875
n 26 906875
n 27 906875
n 28 906875
n 29 906875
n 30 906875
n 31 906875
n 32 906875
n 33 906875
n 34 906875
n 35 906875
n 36 906875
n 37 906875
n 38 906875
n 39 906875
n 40 906875
n 41 906875
